INCAR created by lbatch

# BASIC PARAMETERS
 ALGO       = *
 ENCUT      = *
 GGA        = *
 IVDW       = *
 LASPH      = *
 LREAL      = *
 PREC       = *

# ELECTRONIC PARAMETERS
 EDIFF      = *
 ISMEAR     = *
 SIGMA      = *
 ISPIN      = *
 NELMIN     = *
 NELM       = *
 NELMDL     = *
 ISYM       = *

# STRUCTURAL RELAXATION
 IBRION     = *
 EDIFFG     = *
 NSW        = *

# LDA+U PARAMETERS
 LDAU       = *
 LDAUTYPE   = *
 LDAUL      =*
 LDAUU      =*
 LDAUJ      = *
 LMAXMIX    = *

# PARALLELIZATION
 KPAR       = *
 NCORE      = *
 NPAR       = *

# OUTPUT
 LORBIT     = *
 LCHARG     = *
 LWAVE      = *
 LH5        = *
 NEDOS      = *
