INCAR created by lbatch

# BASIC PARAMETERS
 ALGO       = *
 ENCUT      = *
 GGA        = *
 EFERMI     = *
 IVDW       = *
 LASPH      = *
 LREAL      = *
 PREC       = *

# ELECTRONIC RELAXATION
 ISPIN      = *
 MAGMOM     = *
 EDIFF      = *
 ISMEAR     = *
 SIGMA      = *
 NELMIN     = *
 NELM       = *
 NELMDL     = *
 ISYM       = *

# STRUCTURAL RELAXATION
 IBRION     = *
 ISIF       = *
 EDIFFG     = *
 NSW        = *
 LATTICE_CONSTRAINTS = *

# LDA+U PARAMETERS
 LDAU       = *
 LDAUTYPE   = *
 LDAUL      = *
 LDAUU      = *
 LDAUJ      = *
 LMAXMIX    = *

# PARALLELIZATION
 NCORE      = *
 NPAR       = *
 KPAR       = *

# OUTPUT
 LORBIT     = *
 LCHARG     = *
 LWAVE      = *
 LH5        = *
 LOPTICS    = *
 NEDOS      = *

# 